(set-info :Origin "This instance was generated by: BanditFuzz-- an RL fuzzer for SMT solvers" )
(set-info :Author "Joe Scott, Fed Mora, Vijay Ganesh" )
(set-info :Contact "Joe Scott, joseph.scott@uwaterloo.ca")
(set-logic QF_BV)
(declare-const bool_0 Bool)
(declare-const bool_1 Bool)
(declare-const bool_2 Bool)
(declare-const bool_3 Bool)
(declare-const bool_4 Bool)
(declare-const bv_0 (_ BitVec 32))
(declare-const bv_1 (_ BitVec 32))
(declare-const bv_2 (_ BitVec 32))
(declare-const bv_3 (_ BitVec 32))
(declare-const bv_4 (_ BitVec 32))
(assert (or (bvule (bvsdiv #xfcb53535  bv_2) (bvashr #x9fda9b73  bv_4)) (bvuge (bvlshr bv_0 bv_4) (bvshl bv_2 #x306645aa ))))
(assert (bvsle (bvadd (bvsmod bv_2 bv_1) (bvand bv_0 #xafd70d3b )) (bvmul (bvand #x3a1c7af1  bv_2) (bvnand #x0f016038  #x93e9742c ))))
(assert (bvult (bvlshr (bvnand bv_4 #xf0432bc8 ) (bvashr #x508919c9  bv_3)) (bvsdiv (bvnand #x187d795e  bv_2) (bvnand bv_4 bv_2))))
(assert (bvslt (bvnand (bvadd bv_4 #xb627c592 ) (bvshl #x9c8ea932  #xff362bcd )) (bvadd (bvadd #x2e7b3072  #xdabd9a65 ) (bvadd #x59f7cbfa  #x50ca12f8 ))))
(assert (bvsle (bvxnor (bvor bv_0 bv_3) (bvurem #x3763893c  bv_0)) (bvsdiv (bvsrem bv_1 bv_1) (bvxnor bv_3 #xe9ae6ada ))))
(check-sat)
(exit)
